nbTypes = 8;
nbTimeslots = 15;
nbItems = 12;
storageCost = 10;

changeCost = array2d(Types, Types, 
[|0, 78, 86, 93, 120, 12, 155, 20
|165, 0, 193, 213, 178, 12, 90, 20
|214, 170, 0, 190, 185, 12, 40, 20
|178, 177, 185, 0, 196, 12, 155, 66
|201, 199, 215, 190, 0, 12, 155, 20
|201, 100, 88, 190, 14, 0, 75, 70
|50, 44, 155, 190, 111, 12, 0, 20
|201, 199, 215, 190, 123, 70, 155, 0
|]);

types = [1, 2, 2, 3, 4, 5, 5, 6, 6, 7, 8, 8];
dueTimeslots = [9, 10, 13, 11, 14, 10, 11, 11, 15, 7, 10, 12];
